
Gurobi 11.0.1 (win64) logging started Tue May 14 19:00:37 2024

Set parameter LogFile to value "output/solver_log16.txt"
Gurobi Optimizer version 11.0.1 build v11.0.1rc0 (win64 - Windows 11.0 (22631.2))

CPU model: 11th Gen Intel(R) Core(TM) i7-1165G7 @ 2.80GHz, instruction set [SSE2|AVX|AVX2|AVX512]
Thread count: 4 physical cores, 8 logical processors, using up to 8 threads

Optimize a model with 1641 rows, 784 columns and 29896 nonzeros
Model fingerprint: 0x124b9123
Variable types: 88 continuous, 696 integer (696 binary)
Coefficient statistics:
  Matrix range     [4e-01, 1e+05]
  Objective range  [1e+00, 1e+02]
  Bounds range     [1e+00, 1e+00]
  RHS range        [1e-02, 1e+05]

User MIP start produced solution with objective 58848.1 (0.00s)
User MIP start produced solution with objective 58848.1 (0.00s)
Loaded user MIP start with objective 58848.1

Presolve removed 355 rows and 359 columns
Presolve time: 0.02s
Presolved: 1286 rows, 425 columns, 26778 nonzeros
Variable types: 83 continuous, 342 integer (341 binary)

Root relaxation: objective 6.555994e+04, 463 iterations, 0.02 seconds (0.04 work units)

    Nodes    |    Current Node    |     Objective Bounds      |     Work
 Expl Unexpl |  Obj  Depth IntInf | Incumbent    BestBd   Gap | It/Node Time

     0     0 65559.9389    0   30 58848.0767 65559.9389  11.4%     -    0s
     0     0 65559.9389    0  171 58848.0767 65559.9389  11.4%     -    0s
     0     0 61375.4667    0   87 58848.0767 61375.4667  4.29%     -    0s
     0     0 61375.4667    0   85 58848.0767 61375.4667  4.29%     -    0s
     0     0 61375.4667    0   85 58848.0767 61375.4667  4.29%     -    0s
     0     0 61375.4667    0   85 58848.0767 61375.4667  4.29%     -    0s
     0     2 61375.4667    0   84 58848.0767 61375.4667  4.29%     -    1s
  1172   754 61148.6886   16   91 58848.0767 61375.4667  4.29%  99.1    5s
  2005  1232 60976.6793   26   79 58848.0767 61375.4667  4.29%  89.3   10s
  4364  1740 infeasible   92      58848.0767 61375.4667  4.29%  90.0   15s
H 5320  2007                    58909.474287 61375.4667  4.19%  88.7   18s
  6071  2493 infeasible   60      58909.4743 61375.4667  4.19%  93.1   20s
  7181  3177 60846.5886   76  105 58909.4743 61375.4667  4.19%  95.0   25s
 10678  4720 61375.3537   58  105 58909.4743 61375.4667  4.19%  88.8   31s
 12861  5338 60963.1168   57   92 58909.4743 61375.4667  4.19%  87.5   37s
 14140  6159 61119.6078   70   85 58909.4743 61375.4667  4.19%  86.7   40s
 17908  7617 61375.4497   40   91 58909.4743 61375.4667  4.19%  84.6   45s
 21027  8982 infeasible   54      58909.4743 61375.4666  4.19%  81.6   51s
 24615 10275 61375.3869   78   88 58909.4743 61375.4660  4.19%  77.8   55s
 26468 10945 59836.7927  109   85 58909.4743 61375.4660  4.19%  76.4   60s

Cutting planes:
  MIR: 1
  Flow cover: 1

Explored 26607 nodes (2035393 simplex iterations) in 60.01 seconds (170.32 work units)
Thread count was 8 (of 8 available processors)

Solution count 2: 58909.5 58848.1 

Time limit reached
Best objective 5.890947428711e+04, best bound 6.137546599959e+04, gap 4.1861%
